p cnf 67 131
-23 3 0
-23 4 0
-23 -5 0
23 -4 5 0
-24 6 0
-24 -5 0
-24 -3 0
24 5 3 0
-25 8 0
-25 9 0
-25 -1 0
25 -9 1 0
-26 10 0
-26 -1 0
-26 -8 0
26 1 8 0
-27 11 0
-27 -1 0
27 1 0
-28 12 0
-28 -8 0
28 8 0
-29 13 0
-29 -10 0
29 10 0
-30 14 0
-30 -15 0
-30 -16 0
30 15 16 0
-31 15 0
-31 -14 0
-31 -16 0
31 14 16 0
-32 16 0
-32 -14 0
-32 -15 0
32 14 15 0
-1 -14 0
-8 -15 0
-10 -16 0
-14 -5 0
-15 -3 0
-16 -6 0
-33 18 0
-33 -19 0
-33 -20 0
33 19 20 0
-34 19 0
-34 -18 0
-34 -20 0
34 18 20 0
-35 20 0
-35 -18 0
-35 -19 0
35 18 19 0
-18 -14 0
-19 -15 0
-20 -16 0
-18 -5 0
-19 -3 0
-20 -6 0
-36 21 0
-36 5 0
-36 1 0
36 -5 -1 0
-37 21 0
-37 3 0
-37 8 0
37 -3 -8 0
-38 21 0
-38 6 0
-38 10 0
38 -6 -10 0
-39 22 0
-39 18 0
-39 1 0
39 -18 -1 0
-40 22 0
-40 19 0
-40 8 0
40 -19 -8 0
-41 22 0
-41 20 0
-41 10 0
41 -20 -10 0
-3 23 0
-6 24 0
-8 25 0
-10 26 0
-11 27 0
-12 28 0
-13 29 0
-14 30 0
-15 31 0
-16 32 0
-18 33 0
-19 34 0
-20 35 0
-21 36 37 38 0
-22 39 40 41 0
-9 0
-17 0
-4 0
1 -54 0
-1 54 0
1 55 0
-1 -55 0
2 -56 0
-2 56 0
2 57 0
-2 -57 0
3 -58 0
-3 58 0
3 59 0
-3 -59 0
4 -60 0
-4 60 0
4 61 0
-4 -61 0
5 -62 0
-5 62 0
5 63 0
-5 -63 0
6 -64 0
-6 64 0
6 65 0
-6 -65 0
7 -66 0
-7 66 0
7 67 0
-7 -67 0
